25 2
25 200
10
7
13
19
26
3
5
9
16
16
12
19
23
20
8
19
2
12
17
9
11
18
29
3
6
35 35 0 230 0 0
41 49 133 198 10 3
35 17 22 87 10 3
55 45 98 143 10 2
55 20 123 184 10 1
15 30 20 93 10 2
25 30 76 131 10 2
20 50 61 110 10 1
10 43 75 124 10 3
55 60 74 129 10 2
30 60 107 150 10 1
20 65 42 101 10 3
50 35 38 97 10 1
30 25 131 196 10 3
15 10 32 114 10 3
30 5 35 96 10 1
10 20 52 107 10 2
5 30 124 189 10 1
20 40 69 114 10 3
15 60 52 109 10 3
45 65 105 156 10 1
45 20 37 96 10 3
45 10 76 127 10 3
55 5 43 102 10 2
65 35 124 190 10 1
65 20 121 186 10 1
61 28 0 230 5 4
22 52 0 230 5 4
0 1
1 0
1 0
0 0
0 1
0 1
0 0
0 1
1 0
0 0
0 1
0 0
0 1
0 1
0 0
0 1
0 0
0 1
0 1
0 0
1 0
1 0
1 0
0 0
0 0
